c turning on binary mode checking
c parsing input formula with 259840 variables and 1039929 clauses
c finished parsing, read 2754389 bytes from proof file
c detected empty clause; start verification via backward checking
c 2883 of 1039929 clauses in core                            
c 819 of 113943 lemmas in core using 16613 resolution steps
c 0 RAT lemmas in core; 65 redundant literals in core lemmas
s VERIFIED
c verification time: 1.407 seconds
